NAME: binpacking2d-03.bp2d
COMMENT: gcut3
NB_ITEMS: 30
BIN_WIDTH: 250
BIN_HEIGHT: 250

ITEMS [id width height]:
1 66 80
2 164 107
3 64 184
4 121 86
5 163 135
6 85 98
7 81 102
8 103 186
9 152 106
10 176 139
11 111 118
12 69 169
13 146 133
14 112 112
15 133 160
16 63 129
17 163 152
18 110 155
19 96 136
20 92 142
21 84 143
22 119 133
23 71 71
24 146 84
25 93 86
26 89 86
27 101 146
28 172 73
29 73 169
30 99 99